%chk=D:\Chem\?????\BH3.chk
# hf/3-21g geom=connectivity

Title Card Required

0 1
 B                  2.18290539   -0.49999999   -0.17179775
 H                  3.36290539   -0.49999999   -0.17179775
 H                  1.59290539    0.52190998   -0.17179775
 H                  1.59290539   -1.52190997   -0.17179775

 1 2 1.0 3 1.0 4 1.0
 2
 3
 4

