%chk=D:\Chem\?????\CH4.chk
# hf/3-21g geom=connectivity

Title Card Required

0 1
 C                  0.48275860   -1.84482756    0.00000000
 H                  0.83941303   -2.85363756    0.00000000
 H                  0.83943144   -1.34042937    0.87365150
 H                  0.83943144   -1.34042937   -0.87365150
 H                 -0.58724140   -1.84481437    0.00000000

 1 2 1.0 3 1.0 4 1.0 5 1.0
 2
 3
 4
 5

