%chk=D:\G09W\cinnamic acid.chk
%mem=1500MB
%nprocshared=4
# opt=modredundant b3lyp/6-31g(d') geom=connectivity

Title Card Required

0 1
 C                 -4.15153700    0.94532500    0.23390200
 C                 -4.15868300   -0.33565000   -0.32301800
 C                 -2.97632100   -1.07041900   -0.39094900
 C                 -1.75588400   -0.53623300    0.06896100
 C                 -1.76889600    0.75315700    0.63832100
 C                 -2.95447800    1.47976700    0.72157700
 H                 -5.07330600    1.51993200    0.29752300
 H                 -5.08576100   -0.76667300   -0.69523700
 H                 -2.98793600   -2.07449500   -0.81221700
 H                 -0.85137800    1.17719900    1.03208000
 H                 -2.94464300    2.46960300    1.17335900
 C                 -0.56474100   -1.39088500   -0.01686900
 H                 -0.79372600   -2.45276900   -0.08239200
 C                  0.75542500   -1.07283100   -0.01512700
 C                  1.75973100   -2.17656700    0.01082600
 O                  2.96001900   -2.02268600    0.08987900
 O                  1.21562600   -3.42406300   -0.05374500
 H                  1.97084700   -4.03494200   -0.02672700
 C                  1.32170900    0.30444900   -0.07664400
 C                  0.98881700    1.15145900   -1.14643700
 C                  2.21232500    0.77418200    0.90184300
 C                  1.51676200    2.44031600   -1.22735600
 H                  0.31260400    0.79124700   -1.91844300
 C                  2.73416700    2.06634700    0.82492000
 H                  2.49781100    0.12214300    1.72258800
 C                  2.38838300    2.90377200   -0.23872000
 H                  1.24998400    3.08053800   -2.06592000
 H                  3.41860600    2.41627100    1.59515000
 H                  2.80106500    3.90879400   -0.30021700

 1 2 1.5 6 1.5 7 1.0
 2 3 1.5 8 1.0
 3 4 1.5 9 1.0
 4 5 1.5 12 1.0
 5 6 1.5 10 1.0
 6 11 1.0
 7
 8
 9
 10
 11
 12 13 1.0 14 2.0
 13
 14 15 1.0 19 1.0
 15 16 2.0 17 1.0
 16
 17 18 1.0
 18
 19 20 1.5 21 1.5
 20 22 1.5 23 1.0
 21 24 1.5 25 1.0
 22 26 1.5 27 1.0
 23
 24 26 1.5 28 1.0
 25
 26 29 1.0
 27
 28
 29

D 19 14 12 4 S 20 9.000000

