%chk=D:\Chem\?????\FeX6.chk
# hf/3-21g geom=connectivity

Title Card Required

0 1
 Fe                -1.65517234    1.12068964    0.00000000
 H                 -0.19517234    1.12068964    0.00000000
 H                 -1.65517234    2.58068964    0.00000000
 H                 -1.65517234    1.12068964    1.46000000
 H                 -3.11517234    1.12068964    0.00000000
 H                 -1.65517234   -0.33931036    0.00000000
 H                 -1.65517234    1.12068964   -1.46000000

 1 2 1.0 3 1.0 4 1.0 5 1.0 6 1.0 7 1.0
 2
 3
 4
 5
 6
 7

