%chk=D:\Chem\?????\ph2(D2d).chk
# hf/3-21g geom=connectivity

Title Card Required

0 1
 C                 -2.58642579   -3.31273371    0.00167800
 C                 -1.19126579   -3.31273371    0.00167800
 C                 -0.49372779   -2.10498271    0.00167800
 C                 -1.19138179   -0.89647371    0.00047900
 C                 -2.58620679   -0.89655171    0.00000000
 C                 -3.28380779   -2.10475771    0.00099600
 H                 -3.13618479   -4.26505071    0.00212800
 H                 -0.64175779   -4.26524671    0.00299300
 H                  0.60595221   -2.10490271    0.00231200
 H                 -3.13632879    0.05572929   -0.00095300
 H                 -4.38341179   -2.10457471    0.00081600
 C                 -0.42087771    0.43691426    0.00039638
 C                 -0.07243117    1.04139241    1.20817458
 C                 -0.07119580    1.04004239   -1.20806086
 C                  0.62573039    2.24960875    1.20767712
 H                 -0.34726255    0.56591996    2.16090224
 C                  0.62621935    2.24799935   -1.20852746
 H                 -0.34582668    0.56322268   -2.16008495
 C                  0.97436830    2.85292055   -0.00049845
 H                  0.90065969    2.72603737    2.15989882
 H                  0.90157478    2.72359817   -2.16096012
 H                  1.52486954    3.80486050   -0.00120498

 1 2 1.5 6 1.5 7 1.0
 2 3 1.5 8 1.0
 3 4 1.5 9 1.0
 4 5 1.5 12 1.0
 5 6 1.5 10 1.0
 6 11 1.0
 7
 8
 9
 10
 11
 12 13 1.5 14 1.5
 13 15 1.5 16 1.0
 14 17 1.5 18 1.0
 15 19 1.5 20 1.0
 16
 17 19 1.5 21 1.0
 18
 19 22 1.0
 20
 21
 22

