%chk=D:\Chem\?????\PtCl2Br2H2_Ci.chk
# hf/3-21g geom=connectivity

Title Card Required

0 1
 Pt                -1.22928053   -0.90786772   -0.61100197
 H                 -1.22928053    0.18206716   -1.76864697
 H                 -1.22928053   -1.99780261    0.54664303
 Cl                -2.58281339   -1.68933057   -2.27102143
 Cl                 0.12425234   -0.12640487    1.04901749
 Br                 0.21330055   -1.74074260   -2.38023323
 Br                -2.67186160   -0.07499284    1.15822930

 1 2 1.0 3 1.0 4 1.0 5 1.0 6 1.0 7 1.0
 2
 3
 4
 5
 6
 7

